# GAFF energy minimization script

# System
units            real
atom_style       full
dimension        3
newton           on
boundary         p p p

# Styles
atom_style      full
bond_style      harmonic
angle_style     harmonic
dihedral_style  fourier
improper_style  cvff

pair_style      lj/charmm/coul/long 9.0 10.0 10.0
kspace_style    pppm 0.0001
pair_modify     mix arithmetic
special_bonds   amber

# Data file input
read_data        pack.lmps

# Output
thermo_style     custom step vol temp press etotal pe ke evdwl ecoul ebond eangle edihed eimp
thermo           100

# Minimization Step
minimize         0.0 1.0e-8 1000 100000

# Data file output
write_data       data.lmps
