# Molecular dynamics NVT script for GAFF

# System
units            real
atom_style       full
dimension        3
newton           on
boundary         p p p

# Styles
atom_style      full
bond_style      harmonic
angle_style     harmonic
dihedral_style  fourier
improper_style  cvff

pair_style      lj/charmm/coul/long 9.0 10.0 10.0
kspace_style    pppm 0.0001
pair_modify     mix arithmetic
special_bonds   amber

# Data file input
read_data        data.lmps

# Settings
dielectric       1.0
neighbor         2.0 bin
neigh_modify     delay 0 every 1 check yes
timestep         1.0
run_style        verlet

# Output
thermo_style     custom step vol temp press etotal pe ke evdwl ecoul ebond eangle edihed eimp
thermo           500


# MD step
fix              1 all nvt temp 600 600 100.0
velocity         all create 600 58531416
run              10000
unfix            1

# Data file output
write_data       md.lmps
